NAME : random86.727.tour
COMMENT : Length = 727
COMMENT : Found by LKH [Keld Helsgaun] Sun Jun 16 18:00:34 2024
TYPE : TOUR
DIMENSION : 86
TOUR_SECTION
1
31
50
61
52
42
17
9
68
18
43
4
33
26
83
15
8
27
69
32
51
49
36
37
59
47
12
23
67
20
39
44
46
62
35
5
22
70
56
60
73
19
78
7
25
54
66
48
86
76
81
77
13
53
21
82
57
63
30
80
10
34
84
79
6
65
74
72
2
14
71
55
3
11
28
16
58
85
24
40
41
64
45
38
29
75
-1
EOF
